SPARKNaCl/why3-z3/sparknacl-hkdf.adb_17_25_initialization_1.smt2
;; produced by z3_gnatprove.drv ;;
(set-info :smt-lib-version 2.5)
(set-info :source |VC generated by SPARK 2014|)
(set-info :category industrial)
(set-info :status unknown)
;;; generated by SMT-LIB2 driver
;;; SMT-LIB2 driver: bit-vectors, common part
;;; SMT-LIB2: integer arithmetic
(declare-sort byte 0)

;; "to_rep"
(declare-fun to_rep (byte) (_ BitVec 8))

;; "of_rep"
(declare-fun of_rep ((_ BitVec 8)) byte)

;; "inversion_axiom"
(assert
  (forall ((x byte)) (! (= (of_rep (to_rep x)) x) :pattern ((to_rep x)) )))

;; "range_axiom"
(assert true)

;; "coerce_axiom"
(assert
  (forall ((x (_ BitVec 8)))
    (! (= (to_rep (of_rep x)) x) :pattern ((to_rep (of_rep x))) )))

(declare-sort map1 0)

(declare-datatypes ()
  ((map__ref (map__refqtmk (map__content map1)))))

;; "has_bounds"
(declare-fun has_bounds (map1
  Int
  Int) Bool)

;; "get"
(declare-fun get (map1
  Int) byte)

(declare-sort tinteger_32B 0)

;; "tinteger_32B'int"
(declare-fun tinteger_32Bqtint (tinteger_32B) Int)

;; "tinteger_32B'axiom"
(assert
  (forall ((i tinteger_32B))
    (and
      (<= (- 2147483648) (tinteger_32Bqtint i))
      (<= (tinteger_32Bqtint i) 2147483647))))

;; "in_range"
(define-fun in_range ((x Int)) Bool
  (and (<= (- 2147483648) x) (<= x 2147483647)))

;; "to_rep"
(define-fun to_rep1 ((x tinteger_32B)) Int
  (tinteger_32Bqtint x))

;; "of_rep"
(declare-fun of_rep1 (Int) tinteger_32B)

;; "inversion_axiom"
(assert
  (forall ((x tinteger_32B))
    (! (= (of_rep1 (to_rep1 x)) x) :pattern ((to_rep1 x)) )))

;; "range_axiom"
(assert
  (forall ((x tinteger_32B))
    (! (in_range (to_rep1 x)) :pattern ((to_rep1 x)) )))

;; "coerce_axiom"
(assert
  (forall ((x Int))
    (! (=> (in_range x) (= (to_rep1 (of_rep1 x)) x)) :pattern ((to_rep1
                                                                 (of_rep1 x))) )))

;; "in_range"
(define-fun in_range1 ((x Int)) Bool
  (and (<= 0 x) (<= x 2147483647)))

(declare-datatypes ()
  ((t (tqtmk (rec__first tinteger_32B)(rec__last tinteger_32B)))))

;; "dynamic_property"
(define-fun dynamic_property ((range_first Int) (range_last Int) (low Int) (high Int)) Bool
  (and
    (in_range low)
    (and
      (in_range high)
      (=> (<= low high) (and (in_range1 low) (in_range1 high))))))

(declare-datatypes ()
  ((us_t (us_tqtmk (elts map1)(rt t)))))

;; "first"
(define-fun first ((a us_t)) Int
  (to_rep1 (rec__first (rt a))))

;; "last"
(define-fun last ((a us_t)) Int
  (to_rep1 (rec__last (rt a))))

;; "length"
(define-fun length ((a us_t)) Int
  (ite (<= (first a) (last a)) (+ (- (last a) (first a)) 1) 0))

;; "well_formed"
(define-fun well_formed ((a us_t)) Bool
  (has_bounds
    (elts a)
    (to_rep1 (rec__first (rt a)))
    (to_rep1 (rec__last (rt a)))))

(declare-const ikm us_t)

(declare-const salt us_t)

(declare-datatypes ()
  ((byte__init_wrapper
   (byte__init_wrapperqtmk (rec__value byte)(us_attr__init Bool)))))

(declare-sort map2 0)

(declare-datatypes ()
  ((map__ref1 (map__refqtmk1 (map__content1 map2)))))

;; "has_bounds"
(declare-fun has_bounds1 (map2
  Int
  Int) Bool)

;; "get"
(declare-fun get1 (map2
  Int) byte__init_wrapper)

;; "__is_initialized"
(define-fun us_is_initialized ((temp___expr_298 map2)) Bool
  (forall ((temp___299 Int))
    (=>
      (and (<= 0 temp___299) (<= temp___299 31))
      (= (us_attr__init (get1 temp___expr_298 temp___299)) true))))

;; "convert"
(declare-fun convert (map1) map2)

;; "convert__def"
(assert
  (forall ((a map1))
    (let ((b (convert a)))
      (forall ((temp___170 Int))
        (and
          (= (us_attr__init
               (byte__init_wrapperqtmk
                 (of_rep (to_rep (get a temp___170)))
                 true)) (us_attr__init (get1 b temp___170)))
          (= (to_rep
               (rec__value
                 (byte__init_wrapperqtmk
                   (of_rep (to_rep (get a temp___170)))
                   true))) (to_rep (rec__value (get1 b temp___170)))))))))

;; "dynamic_invariant"
(define-fun dynamic_invariant ((temp___expr_244 us_t) (temp___is_init_240 Bool) (temp___skip_constant_241 Bool) (temp___do_toplevel_242 Bool) (temp___do_typ_inv_243 Bool)) Bool
  (and
    (=>
      (not (= temp___skip_constant_241 true))
      (dynamic_property
        0
        2147483647
        (first temp___expr_244)
        (last temp___expr_244)))
    (well_formed temp___expr_244)))

(declare-const prk map1)

;; "prk'unused"
(define-fun prkqtunused () map__ref
  (map__refqtmk prk))

;; "Assume"
(assert (has_bounds prk 0 31))

;; "Assume"
(assert (dynamic_invariant ikm true false true true))

;; "Assume"
(assert (dynamic_invariant salt true false true true))

;; "Assume"
(assert
  (and
    (and
      (and (= (first ikm) 0) (< 0 (length ikm)))
      (bvult ((_ int2bv 32) (length ikm)) #x7FFFFFBF))
    (=> (< 0 (length salt)) (= (first salt) 0))))

;; "map__content'result'unused"
(define-fun map__contentqtresultqtunused () map1
  prk)

;; "temp___compl_527"
(define-fun temp___compl_527 () map2
  (convert prk))

;; "convert'result'unused"
(define-fun convertqtresultqtunused () map2
  temp___compl_527)

;; "param__output'unused"
(define-fun param__outputqtunused () map__ref1
  (map__refqtmk1 temp___compl_527))

;; "map__ref'mk'result'unused"
(define-fun map__refqtmkqtresultqtunused () map__ref1
  (map__refqtmk1 temp___compl_527))

;; "o"
(define-fun o () us_t
  salt)

;; "o"
(define-fun o1 () us_t
  ikm)

(declare-const param__output map2)

;; "param__output'unused"
(define-fun param__outputqtunused1 () map__ref1
  (map__refqtmk1 param__output))

;; "H"
(assert (us_is_initialized param__output))

;; "H"
(assert (has_bounds1 param__output 0 31))

;; "H"
(assert true)

;; "H"
(assert true)

;; Goal "def'vc"
;; File "sparknacl-hkdf.ads", line 15, characters 0-0
(assert
  (not (us_is_initialized param__output)))

(check-sat)
